========================================================== 
File name: C:\DEGR\assets\definitions\MSRCPSP_Gen\1000_20_1024_5_C.def
Creation date: Sat May 06 09:20:52 CEST 2023
Website: http://imopse.ii.pwr.edu.pl/ 
Reference: 
Myszkowski P. B., Skowronski M. E., Olech L., Oslizlo K., 
Hybrid Ant Colony Optimization in solving Multi-Skill Resource-Constrained Project Scheduling Problem, 
Soft Computing, DOI: DOI 10.1007/s00500-014-1455-x 
========================================================== 
General characteristics: 
Tasks: 1000
Resources: 20
Precedence relations: 1022
Number of skill types: 5
========================================================== 
ResourceID 	 Salary 	 Skills 
1	 	 	14.3	 	 Q3: 0 	  Q2: 0 	 
2	 	 	31.1	 	 Q0: 2 	  Q1: 3 	  Q4: 3 	  Q2: 0 	 
3	 	 	40.0	 	 Q3: 1 	  Q1: 1 	  Q4: 2 	 
4	 	 	70.3	 	 Q0: 2 	 
5	 	 	29.7	 	 Q2: 3 	  Q1: 1 	  Q4: 2 	 
6	 	 	60.3	 	 Q3: 2 	 
7	 	 	88.4	 	 Q4: 3 	  Q0: 1 	  Q3: 1 	  Q2: 0 	 
8	 	 	34.7	 	 Q0: 2 	 
9	 	 	99.3	 	 Q3: 2 	  Q4: 1 	  Q2: 0 	  Q0: 2 	 
10	 	 	87.1	 	 Q3: 0 	  Q1: 0 	 
11	 	 	24.7	 	 Q2: 0 	  Q4: 3 	  Q0: 0 	 
12	 	 	23.1	 	 Q3: 2 	  Q4: 0 	  Q2: 2 	 
13	 	 	69.0	 	 Q0: 1 	  Q2: 3 	  Q3: 2 	 
14	 	 	41.9	 	 Q2: 2 	 
15	 	 	73.9	 	 Q2: 0 	 
16	 	 	95.5	 	 Q1: 2 	  Q3: 0 	  Q0: 3 	  Q2: 1 	 
17	 	 	34.5	 	 Q1: 0 	 
18	 	 	54.8	 	 Q3: 1 	  Q4: 0 	 
19	 	 	40.2	 	 Q1: 3 	  Q0: 1 	 
20	 	 	38.5	 	 Q4: 0 	 
========================================================== 
TaskID 	 Duration 	 Skill 	 Predecessor IDs 
1	20	Q1:	2
2	33	Q0:	3
3	9	Q4:	0
4	12	Q4:	0
5	14	Q0:	0
6	28	Q3:	2
7	23	Q2:	2
8	17	Q2:	1
9	9	Q3:	1
10	39	Q0:	2
11	25	Q2:	3
12	10	Q2:	0
13	37	Q3:	1
14	27	Q3:	1
15	9	Q4:	1
16	13	Q2:	0
17	11	Q0:	0
18	17	Q2:	2
19	29	Q0:	2
20	39	Q0:	2
21	31	Q0:	3
22	40	Q4:	1
23	13	Q4:	1
24	37	Q2:	0
25	30	Q3:	0	8
26	19	Q2:	2
27	23	Q2:	3
28	38	Q2:	2
29	29	Q1:	0
30	11	Q3:	1
31	18	Q2:	1
32	38	Q2:	2
33	9	Q3:	0
34	40	Q4:	3
35	18	Q1:	2
36	11	Q3:	2
37	34	Q4:	2
38	32	Q4:	0
39	28	Q1:	0
40	18	Q3:	2
41	39	Q2:	0
42	40	Q4:	3
43	40	Q0:	0
44	17	Q0:	3
45	14	Q3:	1
46	21	Q0:	1
47	38	Q2:	3
48	18	Q3:	1
49	16	Q0:	0
50	11	Q3:	0
51	30	Q4:	0
52	38	Q0:	0
53	22	Q1:	3
54	23	Q1:	3
55	13	Q4:	2
56	35	Q2:	2
57	23	Q2:	1
58	23	Q4:	3
59	34	Q0:	1
60	30	Q1:	3
61	30	Q1:	1
62	40	Q3:	0
63	13	Q0:	3
64	23	Q3:	0	48
65	9	Q4:	2
66	22	Q4:	3
67	22	Q3:	1
68	24	Q1:	1
69	25	Q3:	0
70	13	Q3:	1
71	30	Q4:	2
72	27	Q2:	3
73	19	Q1:	0
74	24	Q4:	1	6
75	14	Q4:	2
76	11	Q1:	1
77	13	Q2:	1
78	34	Q2:	3
79	34	Q3:	1
80	34	Q2:	0	9	55
81	10	Q3:	0
82	29	Q2:	2
83	31	Q2:	0
84	19	Q2:	2	78
85	13	Q2:	3
86	20	Q4:	0
87	23	Q0:	0
88	26	Q4:	1
89	23	Q1:	0
90	27	Q2:	1	1
91	12	Q2:	3
92	33	Q2:	0
93	10	Q1:	3	59
94	30	Q2:	0
95	16	Q0:	3
96	39	Q1:	2
97	11	Q4:	0	22	16
98	22	Q4:	2	39
99	29	Q1:	0
100	12	Q0:	1	67
101	19	Q0:	2	56
102	25	Q4:	0
103	27	Q3:	0
104	25	Q3:	2
105	34	Q0:	3
106	10	Q1:	0
107	14	Q0:	3
108	39	Q2:	0
109	38	Q3:	1
110	9	Q0:	1
111	38	Q4:	3	30
112	17	Q4:	3
113	30	Q3:	1
114	9	Q4:	1	49
115	32	Q1:	0
116	26	Q0:	3
117	21	Q3:	1
118	15	Q2:	3	86
119	18	Q1:	1
120	40	Q4:	3	73
121	40	Q2:	2
122	31	Q3:	2
123	16	Q4:	2
124	24	Q2:	1
125	39	Q2:	3
126	13	Q1:	0
127	32	Q0:	3
128	39	Q2:	3
129	27	Q3:	2
130	13	Q3:	0
131	19	Q0:	3
132	39	Q2:	3	126
133	21	Q1:	3
134	37	Q4:	2
135	21	Q1:	2
136	24	Q1:	3	100
137	36	Q0:	1
138	9	Q2:	0
139	33	Q1:	2	95
140	27	Q0:	0
141	21	Q3:	2	139	17
142	33	Q2:	0
143	37	Q3:	1	125
144	35	Q3:	0
145	9	Q2:	3	66
146	14	Q0:	2
147	11	Q4:	0	48
148	9	Q3:	1	73
149	34	Q2:	3
150	31	Q1:	3
151	10	Q2:	1
152	23	Q2:	3
153	39	Q3:	0
154	38	Q2:	2
155	11	Q0:	2
156	9	Q4:	2	95
157	40	Q2:	0
158	13	Q4:	2
159	17	Q4:	0
160	30	Q1:	2	117
161	30	Q2:	3	155
162	20	Q4:	0
163	24	Q2:	3
164	23	Q2:	0	142
165	13	Q4:	0	54
166	16	Q3:	0
167	19	Q1:	1	45	5
168	16	Q0:	2	30
169	19	Q1:	1	161
170	38	Q2:	3
171	13	Q4:	1
172	27	Q3:	1
173	18	Q1:	1	145	153
174	21	Q0:	1	93	30
175	36	Q3:	0
176	15	Q3:	1	82
177	32	Q3:	0
178	36	Q1:	2	20
179	16	Q1:	1
180	29	Q1:	2
181	18	Q1:	3	148
182	30	Q1:	0	60
183	25	Q4:	0
184	23	Q0:	0
185	10	Q4:	3
186	40	Q4:	2
187	21	Q4:	2
188	20	Q2:	1	88
189	14	Q3:	1
190	23	Q1:	2
191	15	Q2:	3	1
192	21	Q3:	0	63
193	22	Q1:	0
194	21	Q3:	0
195	34	Q4:	3	48	85
196	13	Q0:	2
197	23	Q1:	2	182
198	13	Q1:	2
199	21	Q4:	2
200	35	Q2:	3
201	20	Q4:	2	157
202	37	Q3:	2	40
203	38	Q3:	2	2
204	34	Q2:	3
205	30	Q0:	2	143	18
206	16	Q2:	1	57	131
207	12	Q1:	3
208	40	Q4:	3	207
209	33	Q0:	0	195
210	34	Q4:	0
211	37	Q1:	2
212	22	Q3:	2
213	30	Q2:	3	94
214	36	Q4:	1
215	24	Q1:	3
216	21	Q1:	1
217	14	Q2:	1
218	8	Q0:	1
219	38	Q0:	2
220	24	Q0:	1	191
221	29	Q1:	1	18
222	21	Q1:	1
223	22	Q2:	3
224	35	Q2:	1
225	26	Q2:	2
226	23	Q4:	0
227	34	Q3:	0	89
228	17	Q1:	3
229	19	Q3:	0
230	40	Q4:	3
231	40	Q0:	1
232	31	Q0:	1
233	18	Q4:	2
234	31	Q4:	2	194
235	20	Q3:	0	64
236	25	Q2:	2
237	22	Q0:	1
238	16	Q3:	1	219
239	36	Q1:	2
240	24	Q4:	0
241	38	Q3:	0
242	11	Q2:	0
243	13	Q0:	3	173
244	23	Q0:	3
245	12	Q2:	3
246	11	Q2:	0
247	31	Q0:	2
248	39	Q3:	0	66
249	16	Q1:	2	102
250	19	Q4:	0	212	243	209
251	34	Q2:	1
252	36	Q0:	1
253	19	Q2:	1
254	24	Q4:	0
255	13	Q2:	3
256	38	Q3:	1
257	40	Q4:	2	218	221
258	10	Q1:	2	49
259	14	Q2:	2
260	9	Q3:	1	26	39
261	30	Q3:	1	154
262	14	Q0:	3	9
263	36	Q1:	3	31	112	89
264	37	Q1:	3	55
265	21	Q2:	1
266	28	Q3:	2
267	34	Q1:	1
268	12	Q1:	1	46
269	17	Q3:	0
270	35	Q1:	3	127
271	13	Q2:	2
272	18	Q3:	1
273	36	Q0:	1
274	30	Q4:	0	45	107
275	18	Q4:	3
276	39	Q4:	0	76	256
277	14	Q3:	2
278	29	Q3:	2
279	33	Q1:	1	28
280	23	Q3:	1
281	11	Q3:	0	7
282	33	Q4:	0	48
283	12	Q2:	2
284	14	Q0:	0
285	39	Q4:	2	267
286	25	Q4:	3	77
287	12	Q1:	3
288	35	Q0:	0	251	276
289	10	Q0:	1
290	38	Q3:	0	281
291	27	Q3:	1
292	26	Q3:	2
293	19	Q1:	3
294	29	Q4:	3
295	19	Q1:	2
296	28	Q1:	0	38
297	36	Q2:	3	285
298	37	Q1:	1
299	26	Q2:	1	267	237
300	33	Q1:	3
301	32	Q0:	2
302	37	Q0:	0
303	14	Q4:	0	241
304	31	Q4:	3
305	13	Q2:	1
306	23	Q0:	0	245
307	19	Q3:	1
308	33	Q1:	3	91
309	13	Q4:	3	133
310	12	Q3:	1
311	28	Q4:	0	117
312	26	Q4:	2	185	163	306
313	31	Q0:	3
314	12	Q4:	3	14
315	33	Q3:	2	135
316	17	Q1:	2
317	19	Q3:	1	215
318	30	Q4:	2
319	37	Q0:	1
320	16	Q3:	1
321	32	Q4:	0
322	36	Q2:	2
323	23	Q0:	2	220	303	185	242
324	32	Q2:	1
325	24	Q4:	1
326	30	Q0:	3
327	35	Q4:	3	266	72	104
328	13	Q1:	1	184	98
329	20	Q2:	2
330	15	Q4:	2
331	30	Q2:	2
332	31	Q4:	0
333	31	Q3:	2	106	174
334	19	Q1:	2	10
335	36	Q2:	3	286
336	36	Q1:	1
337	32	Q2:	2
338	18	Q2:	2
339	15	Q3:	2	194
340	39	Q1:	2	305
341	15	Q0:	0
342	11	Q1:	0	206
343	39	Q0:	1	207	269
344	10	Q0:	1
345	33	Q0:	0	276
346	31	Q3:	1
347	28	Q3:	1
348	18	Q4:	3
349	33	Q4:	2
350	12	Q4:	2	168
351	30	Q1:	3	293
352	30	Q4:	3
353	13	Q1:	1	182	11	112
354	12	Q2:	1
355	19	Q2:	2
356	34	Q3:	1
357	12	Q4:	1	16
358	10	Q1:	0
359	22	Q2:	2	287	19
360	33	Q3:	1	63	295
361	25	Q3:	0	200
362	28	Q2:	1	180
363	21	Q4:	2	22	230
364	24	Q2:	1	295
365	40	Q0:	0	157
366	23	Q4:	1	319	148
367	29	Q2:	3	2	126
368	24	Q2:	2	169
369	31	Q1:	1
370	19	Q2:	3	282	137
371	10	Q3:	1
372	30	Q1:	0
373	20	Q2:	1
374	21	Q3:	1	186
375	18	Q1:	3	236
376	19	Q3:	1	289
377	18	Q3:	1
378	26	Q0:	3	16
379	36	Q0:	3	136	291
380	18	Q0:	3
381	39	Q2:	1	17
382	29	Q0:	0	215	349	41
383	10	Q2:	2
384	25	Q1:	0	131	343
385	21	Q3:	2
386	33	Q0:	2
387	13	Q3:	2	266
388	22	Q0:	1	103	74
389	37	Q2:	1
390	13	Q1:	0	227
391	37	Q4:	3
392	14	Q1:	0
393	31	Q2:	3
394	25	Q2:	3
395	23	Q4:	2
396	27	Q1:	2
397	11	Q0:	1	68	381
398	10	Q0:	3	105	53
399	17	Q3:	2
400	32	Q3:	0
401	37	Q1:	3	345
402	37	Q3:	0
403	33	Q2:	0
404	22	Q0:	3	172
405	15	Q1:	3	110	328	131
406	30	Q0:	3	20
407	34	Q0:	0	343
408	26	Q2:	1	74
409	29	Q2:	0
410	18	Q0:	0	351	154	75	338
411	25	Q2:	3
412	36	Q4:	3
413	37	Q2:	2
414	31	Q1:	0	345	172	200
415	14	Q2:	3	42	113
416	33	Q0:	2
417	26	Q4:	2
418	29	Q3:	2
419	36	Q2:	0
420	39	Q0:	1
421	15	Q3:	0	263	261	416
422	26	Q3:	2	153
423	40	Q0:	3
424	40	Q3:	1
425	18	Q0:	1
426	10	Q4:	2	138
427	9	Q3:	1	111
428	14	Q1:	3	352
429	24	Q4:	1	179
430	18	Q3:	1	349	105
431	21	Q0:	2
432	18	Q4:	3
433	22	Q2:	0
434	40	Q3:	1	322	229
435	32	Q2:	3	184
436	20	Q3:	2
437	17	Q1:	1
438	34	Q1:	0	360	57	179	149	199
439	33	Q1:	1	177	371
440	23	Q2:	2	180	356	76
441	31	Q0:	3	131
442	37	Q2:	1	200
443	25	Q2:	2	108
444	12	Q2:	1	35	224
445	10	Q0:	2
446	27	Q0:	3	44
447	13	Q2:	3
448	20	Q4:	1	82	81	226
449	40	Q0:	1
450	15	Q0:	3	422
451	27	Q2:	2
452	11	Q0:	1	41
453	25	Q3:	0	395
454	40	Q1:	3	136
455	32	Q2:	3	401	427	292
456	25	Q0:	3	191
457	36	Q0:	3
458	28	Q4:	1
459	23	Q0:	1
460	18	Q1:	0	261	372
461	39	Q2:	1	83
462	15	Q1:	1
463	34	Q1:	1
464	34	Q4:	0
465	34	Q0:	2	202
466	36	Q4:	3
467	9	Q1:	2	42	147	184
468	40	Q4:	0
469	19	Q2:	2	171	29	25
470	39	Q0:	0	358
471	16	Q2:	3	20
472	16	Q0:	3	410
473	22	Q0:	3
474	14	Q2:	2	425
475	27	Q1:	1	234
476	35	Q4:	3	160
477	13	Q4:	2	361	239
478	38	Q2:	0	234	170
479	33	Q2:	2
480	31	Q0:	0	378	118	58
481	36	Q1:	0	164	247
482	36	Q2:	3
483	27	Q0:	3	203	99
484	19	Q3:	1	70
485	37	Q1:	0	433
486	14	Q0:	0
487	16	Q4:	0
488	39	Q2:	3	377	223
489	36	Q3:	2	323	393
490	32	Q0:	1
491	31	Q4:	1	217
492	15	Q3:	0	290
493	14	Q4:	3
494	16	Q0:	3	76
495	21	Q4:	1
496	20	Q3:	0
497	34	Q0:	0	411
498	40	Q4:	1	373	28
499	23	Q4:	1	459
500	9	Q0:	3	387
501	14	Q2:	2	492
502	33	Q4:	2
503	29	Q1:	1
504	35	Q4:	1
505	23	Q1:	3	102
506	37	Q3:	0
507	31	Q0:	3	187
508	11	Q1:	3	109	482
509	25	Q3:	2	148	208
510	23	Q0:	2	162
511	16	Q2:	1	268
512	23	Q2:	0	24	195
513	38	Q3:	1	500
514	23	Q0:	1
515	33	Q2:	3	128	168
516	21	Q0:	3	349
517	34	Q4:	2	276	331
518	15	Q3:	1	298
519	29	Q1:	1	377
520	25	Q1:	3	56	440
521	23	Q3:	0	313
522	11	Q2:	0	73
523	33	Q4:	1	398	253	464
524	35	Q0:	3	415	194	365	492
525	26	Q1:	2	143	157	389	241
526	13	Q2:	0	115
527	10	Q1:	3	183
528	25	Q0:	1
529	14	Q2:	3
530	10	Q4:	0
531	22	Q4:	2	151
532	27	Q2:	2	274	529
533	24	Q3:	1	192	426	193
534	30	Q3:	2
535	11	Q2:	1	192	102
536	15	Q3:	1
537	16	Q2:	0	391
538	33	Q4:	2
539	34	Q0:	1
540	32	Q3:	2	239
541	26	Q2:	1
542	40	Q1:	1	132
543	23	Q0:	1	223	56	524	334
544	19	Q1:	3	314	33
545	27	Q3:	1	460
546	12	Q3:	1
547	20	Q1:	0
548	16	Q3:	1	536
549	15	Q1:	2	187	404
550	10	Q4:	0	409	54
551	19	Q1:	0	286
552	11	Q1:	2	109
553	27	Q4:	0	100
554	35	Q2:	0	128	322
555	20	Q2:	1	329	264	379	309
556	34	Q4:	3	35	77	499	94	431
557	26	Q3:	2
558	11	Q3:	2	100
559	10	Q4:	0	345
560	20	Q2:	3	536
561	40	Q0:	0	48
562	25	Q4:	2	27
563	24	Q0:	2	339	219	493
564	29	Q4:	2	200
565	12	Q2:	1
566	29	Q2:	3
567	26	Q4:	3	280
568	12	Q3:	0	458	329	11
569	10	Q3:	1
570	11	Q2:	0	448	28	32
571	23	Q1:	1	272	149
572	28	Q1:	3	99	399	393
573	24	Q1:	2	10
574	27	Q2:	0	296
575	20	Q0:	0	109	99
576	26	Q2:	1	549
577	12	Q2:	1
578	12	Q1:	3	342	317
579	35	Q0:	2	229	457
580	29	Q1:	3	122
581	38	Q0:	0	137
582	22	Q2:	0	146
583	19	Q4:	0
584	10	Q3:	2
585	20	Q4:	1	107
586	19	Q0:	3
587	40	Q3:	2	467	107
588	22	Q0:	1	257	335	129
589	34	Q0:	3	485	53
590	36	Q1:	1
591	21	Q2:	1	353
592	36	Q3:	2	66
593	37	Q4:	0
594	10	Q3:	0	61
595	25	Q4:	3	584	471
596	26	Q4:	3
597	22	Q1:	0	566
598	13	Q3:	2	486	94
599	27	Q2:	1
600	10	Q0:	3	286	103	374	276	28
601	31	Q2:	2	600
602	18	Q1:	0
603	13	Q1:	0	445	276	340	221
604	27	Q3:	0	448	489	133
605	19	Q2:	3
606	10	Q2:	3	404	87
607	28	Q4:	2	444	467
608	17	Q2:	3
609	17	Q0:	3
610	14	Q0:	0
611	9	Q2:	2	346	35	489
612	9	Q2:	3	572
613	12	Q1:	1	66	562	113
614	33	Q3:	1	144	440
615	11	Q3:	2	288	22
616	19	Q2:	2	449
617	28	Q2:	0	243	498
618	31	Q1:	0	123
619	14	Q4:	1	140
620	40	Q2:	0	174
621	39	Q2:	1	528	357
622	33	Q2:	0	294
623	34	Q0:	0	402
624	25	Q4:	1
625	39	Q0:	3	145	342	478
626	31	Q2:	0
627	40	Q3:	2
628	40	Q4:	1	261	365
629	10	Q2:	2
630	12	Q1:	1
631	40	Q0:	3
632	21	Q4:	3	491
633	11	Q3:	2	307	263
634	11	Q2:	2	617	567
635	24	Q4:	3	15	243	533	275
636	9	Q4:	0	397	565
637	20	Q1:	1
638	32	Q3:	2
639	21	Q3:	0	602	588	456	64
640	17	Q0:	3
641	9	Q0:	3	206	417
642	13	Q0:	0	15	427
643	29	Q4:	1	24
644	21	Q4:	2	449	159
645	12	Q3:	1	302	443
646	24	Q4:	1	598	381
647	18	Q3:	2	223
648	27	Q2:	3
649	33	Q3:	0
650	12	Q0:	0
651	36	Q0:	0
652	23	Q3:	2	384
653	23	Q2:	2	488
654	15	Q0:	1	181
655	25	Q0:	2	426
656	14	Q4:	2	183	600
657	19	Q2:	3
658	30	Q3:	0	298	67
659	24	Q1:	3	325	453
660	14	Q0:	2	274	330
661	36	Q3:	2	245	158
662	28	Q2:	3	648
663	9	Q3:	1	226	500	614	369
664	36	Q3:	1	181
665	14	Q1:	1	490
666	21	Q2:	1	2
667	39	Q0:	2	28
668	30	Q2:	2	46
669	13	Q0:	2	508	589
670	22	Q4:	2	259
671	27	Q1:	1	22
672	10	Q4:	1	109
673	28	Q2:	1	515
674	26	Q4:	3	297	320
675	36	Q0:	3	492
676	33	Q4:	0
677	24	Q2:	3
678	29	Q0:	0	672
679	20	Q0:	0
680	40	Q2:	1	32	448
681	38	Q3:	1	106	40
682	40	Q4:	0	458	269
683	16	Q0:	2	623	399	653	352
684	16	Q3:	2
685	29	Q2:	3	436	4	615	442
686	37	Q0:	1
687	31	Q3:	2
688	15	Q4:	0	205
689	28	Q1:	2	217	309	230	478
690	11	Q2:	1
691	27	Q4:	3
692	15	Q0:	0	272	332
693	9	Q1:	3	166	377
694	20	Q4:	1	530
695	30	Q3:	0	617	387
696	13	Q1:	3	307	59
697	18	Q4:	1	246
698	11	Q1:	1
699	32	Q2:	3	457	223
700	21	Q0:	2	81
701	38	Q4:	0	55
702	29	Q2:	1	580	159	95
703	18	Q1:	0	261	484
704	38	Q0:	0	700
705	34	Q3:	0	646	156
706	29	Q2:	2	624	24
707	21	Q4:	0	550	132
708	26	Q1:	1
709	24	Q1:	3	645	437
710	28	Q2:	3	195	421
711	26	Q1:	3	698	705
712	34	Q2:	2	589
713	18	Q3:	2	133	239	518
714	29	Q0:	3	446
715	30	Q3:	0
716	17	Q0:	3	698
717	14	Q3:	2	666	599	293	443	139
718	17	Q0:	1	2
719	39	Q2:	3	425
720	36	Q4:	3
721	14	Q4:	2	201
722	13	Q3:	0	145	354
723	33	Q2:	1	104	470
724	33	Q0:	1	539	633
725	27	Q1:	1	663
726	30	Q4:	0	517
727	18	Q0:	3
728	39	Q2:	1	338
729	27	Q2:	2	86	216	673
730	20	Q1:	1
731	32	Q2:	3	710
732	27	Q4:	1
733	9	Q3:	2
734	10	Q0:	1	417	569
735	18	Q1:	1	548	405	139	520	164
736	32	Q0:	1	641
737	24	Q0:	2	576	686	270
738	32	Q1:	0	295
739	22	Q4:	1	330
740	19	Q3:	2	257
741	19	Q1:	0
742	14	Q1:	0	700
743	37	Q2:	1	532
744	29	Q2:	3	137
745	29	Q4:	1	350
746	11	Q0:	2
747	10	Q3:	2
748	21	Q0:	2	515	366
749	31	Q0:	2
750	38	Q1:	1
751	10	Q2:	2	713
752	37	Q0:	2	98
753	35	Q3:	0	707
754	31	Q1:	2
755	37	Q4:	0	635	500	720
756	38	Q2:	3	704	119
757	11	Q2:	1	471
758	30	Q1:	0	71
759	19	Q4:	1
760	10	Q0:	3	18	558	213	69
761	31	Q1:	3	578
762	40	Q2:	2	672	580	308	329	487	215
763	11	Q2:	2	315
764	22	Q0:	2	271	682
765	25	Q3:	0	539
766	17	Q1:	3	416
767	11	Q0:	2	254	494	6
768	20	Q0:	2	767
769	22	Q2:	1
770	32	Q0:	2	328
771	16	Q1:	3
772	40	Q2:	3
773	20	Q4:	0
774	35	Q3:	1	602
775	12	Q1:	1	574	483
776	27	Q3:	0	188
777	14	Q1:	3	122
778	11	Q4:	0	349	28
779	11	Q4:	2	405	351
780	39	Q3:	1
781	29	Q3:	2	456	195
782	31	Q3:	2	451	642
783	37	Q2:	1	380
784	22	Q0:	2	270
785	32	Q0:	2
786	27	Q1:	3	424
787	28	Q0:	2	380
788	21	Q3:	2	275	380
789	24	Q1:	3	669	260	647	329	256	107
790	26	Q3:	2
791	24	Q1:	2	109	487
792	33	Q4:	2	790	482	196	168
793	33	Q3:	0	36
794	20	Q2:	0	105	779
795	27	Q0:	1	676
796	34	Q2:	3	422
797	23	Q0:	3	242	21
798	33	Q0:	1	169	193	336	649	461
799	36	Q1:	1	775	701
800	38	Q4:	1
801	14	Q0:	1	207
802	32	Q2:	2	689	748	584
803	36	Q2:	1	137	116
804	38	Q1:	3	161	112	100	94
805	34	Q2:	2	723
806	18	Q2:	2	7	792	186
807	33	Q1:	3
808	38	Q0:	3	739	461	750
809	34	Q4:	3	691	440
810	25	Q0:	1	684	203
811	16	Q4:	0	345	368	589
812	27	Q2:	3	315	749	549
813	20	Q3:	0	759	162
814	27	Q1:	0	122
815	37	Q1:	3	284	505
816	10	Q0:	2	596	700	308	770	487	327
817	27	Q4:	3	258
818	31	Q1:	2	111	299	677	114
819	15	Q0:	2
820	37	Q2:	1	552
821	24	Q4:	1	476
822	24	Q0:	2	296	55	527	692	687
823	12	Q1:	3	411
824	33	Q2:	3	767
825	29	Q1:	2	433
826	40	Q2:	2	557	281
827	33	Q4:	1	403	477	764
828	13	Q2:	0	114	519	335
829	39	Q1:	1
830	14	Q0:	3	539	104	331
831	12	Q3:	0	136	641
832	36	Q1:	1
833	28	Q4:	0	296
834	16	Q2:	3
835	36	Q3:	1	563	788
836	26	Q1:	3	683
837	18	Q1:	2	826
838	19	Q1:	0	369
839	32	Q1:	2	291	541
840	35	Q2:	1	751
841	15	Q2:	1	392
842	36	Q0:	0	299	266	303
843	26	Q0:	3	436
844	19	Q4:	2	622
845	28	Q1:	1	168
846	13	Q3:	1	463	161
847	24	Q4:	0	115	762	6	84	280
848	16	Q1:	1
849	39	Q4:	3	438
850	14	Q3:	0	828	203	265	703	124
851	30	Q2:	2	747
852	33	Q4:	3
853	33	Q2:	3	739	433	640
854	20	Q0:	3	192
855	26	Q0:	0	534	814	512	32	602	13	273	514
856	32	Q4:	3	408	454	502
857	20	Q4:	2
858	11	Q4:	2	721	593	781
859	36	Q3:	0	329	422	122
860	31	Q4:	2	803	9
861	30	Q4:	1	38	853
862	31	Q4:	1	791	739	714
863	11	Q0:	2	662	595
864	25	Q0:	2	536	435	144	329	473
865	16	Q0:	2	27	732
866	17	Q4:	3	856
867	31	Q3:	0	648
868	14	Q2:	2	278	800	94
869	18	Q1:	1	395	421	480
870	32	Q3:	1	749
871	40	Q1:	3	685	116
872	22	Q1:	0	545	854
873	30	Q1:	1	632	590
874	14	Q3:	1	264	397	677
875	40	Q2:	2	75	433	252	793
876	39	Q2:	1	323	263
877	40	Q4:	3	812	156
878	14	Q3:	2	654
879	34	Q0:	1	156	660	806
880	36	Q3:	2	781
881	9	Q1:	3	26
882	27	Q4:	1	319
883	9	Q2:	0	134	409	480	821	154
884	38	Q4:	3	429	586
885	34	Q4:	3	48
886	9	Q1:	0	686
887	18	Q1:	1	660
888	37	Q2:	0	372	467
889	38	Q0:	3	465
890	30	Q4:	3	184
891	14	Q2:	3
892	40	Q2:	0	325	509
893	33	Q4:	0
894	38	Q1:	1	434	326	526
895	34	Q1:	1	23	248	727	820
896	37	Q1:	0	163	562
897	13	Q4:	0	87	637	867	841
898	37	Q2:	3	369
899	11	Q2:	2
900	36	Q2:	2
901	11	Q1:	1	360	94	244	732
902	32	Q4:	3	390	824
903	21	Q3:	1	163	713	818
904	15	Q2:	3	80
905	36	Q4:	2	316
906	40	Q0:	3	754
907	39	Q2:	3	443
908	29	Q0:	1	824
909	10	Q0:	3	419	189
910	24	Q4:	3	205	373	247	8
911	31	Q4:	0	39	308
912	16	Q3:	2	129
913	23	Q0:	1	95	389
914	31	Q3:	0	753	651	381
915	31	Q0:	0
916	9	Q0:	2	592	135	288
917	35	Q1:	0	816	159
918	29	Q1:	2	563	861
919	34	Q1:	2
920	11	Q1:	1	196	681
921	12	Q4:	0	226	574	898	578	623
922	31	Q0:	3	561
923	33	Q1:	0	562	557	287
924	22	Q4:	0
925	27	Q0:	1
926	28	Q4:	3	363	68	906	269	699	292	700
927	13	Q2:	1	446	61
928	27	Q2:	1	270	727	927	867	180	395
929	36	Q4:	3	561
930	12	Q1:	1	64
931	24	Q3:	0
932	37	Q1:	2
933	27	Q2:	1	385	79	414
934	22	Q4:	2	904
935	12	Q4:	1	787
936	24	Q0:	0	33
937	36	Q2:	2	667
938	32	Q1:	0
939	36	Q0:	1
940	28	Q2:	1	670	368	682
941	14	Q3:	2	543	117
942	10	Q0:	3	264
943	15	Q2:	0	489
944	13	Q3:	1	288
945	27	Q1:	1	79
946	23	Q0:	2	122	533
947	28	Q1:	0	382	304
948	34	Q3:	0
949	39	Q1:	1
950	21	Q3:	1	234	325	266
951	38	Q1:	2
952	33	Q1:	3
953	36	Q1:	1
954	26	Q4:	0	318
955	17	Q4:	2	461
956	22	Q0:	3	199
957	16	Q1:	1	564	131
958	16	Q0:	0	442	786
959	17	Q2:	0
960	10	Q4:	0	639	744
961	35	Q1:	1	140	570
962	31	Q4:	3
963	21	Q2:	0	946
964	12	Q4:	0	343	118
965	38	Q1:	3	556	144	160
966	26	Q0:	0
967	38	Q4:	3	721	493
968	14	Q4:	0	220
969	25	Q1:	3	29	902	650	230
970	20	Q2:	0
971	17	Q0:	0	872	36
972	24	Q0:	1	382	904	253
973	15	Q2:	2	573
974	16	Q0:	0	335
975	33	Q4:	0
976	12	Q0:	0	194	37
977	32	Q4:	0
978	35	Q4:	2	86	690	818
979	40	Q0:	0	405
980	31	Q3:	0
981	28	Q4:	1	506	133
982	24	Q4:	1	312	734
983	26	Q4:	3	189
984	30	Q2:	2	580	295	336
985	32	Q4:	3	617	707
986	28	Q4:	2	452	278
987	39	Q0:	1
988	26	Q1:	3	632
989	37	Q1:	2	627	55
990	13	Q1:	2	654
991	16	Q0:	0	179	626
992	13	Q1:	1	88
993	32	Q4:	1	118
994	28	Q1:	0	979
995	13	Q3:	2	413	643	914	731
996	37	Q2:	3	500
997	36	Q1:	0	29
998	31	Q3:	0	644	732
999	38	Q2:	1	320
1000	40	Q0:	3	387	799
========================================================== 